Geometry = GenFormat { 
    <<< "geo_end.gen" 
} 
 
