%nproc=4
%mem=5760MB
%chk=gaussian_102_water_hf_adz.chk
#P HF/aug-cc-pVDZ scf(maxcycle=200) 

Gaussian input

0 1
O      0.000000000000000      0.117510000000000      0.000000000000000
H      0.757849731580941     -0.470150432854464      0.000000000000000
H     -0.596505334252651     -0.696285051722566      0.000000000000000


