%nproc=4
%mem=5760MB
%chk=gaussian_48_water_hf_adz.chk
#P HF/aug-cc-pVDZ scf(maxcycle=200) 

Gaussian input

0 1
O      0.000000000000000      0.117510000000000      0.000000000000000
H      0.718337232541267     -0.439511202778632      0.000000000000000
H     -0.752667766706912     -0.554481244705189      0.000000000000000


