%nproc=4
%mem=5760MB
%chk=gaussian_19_water_ccsdt_atz.chk
#P HF/aug-cc-pVDZ scf(maxcycle=200) 

Gaussian input

0 1
O      0.000000000000000      0.117510000000000      0.000000000000000
H      0.718337232541267     -0.439511202778632      0.000000000000000
H     -0.855481388190474     -0.189788868302017      0.000000000000000


